(declare-fun e () String)
(declare-fun d () String)
(declare-fun f () String)
(declare-fun a () String)
(declare-fun h () String)
(assert (= d (str.++ d e "f")))
(assert (= (str.++ "ed" a "fc") "ec"))
(assert (= (str.++ h "ba") (str.++ f "ff" a)))

(check-sat)
